NAME: test20
TYPE: TSP
DIMENSION: 10
EDGE_WEIGHT_TYPE: EUC_2D
NODE_COORD_SECTION
1 72.41143201319213 65.81630055733633
2 43.31677618477619 18.749788177521133
3 82.05336973552096 68.82053740803265
4 82.43295390756634 99.03911323794193
5 1.6541462588487321 91.43703587161568
6 73.30402064663079 86.5082025625372
7 71.724302451032 4.670308301948889
8 71.92573748599213 0.7838989547189201
9 78.60732410584073 74.95067105618435
10 93.71915835783588 73.35399234388285
EOF
